// função objetivo
min: 600 r1_1 + 1000 r2_1 + 200 r3_1 + 800 r4_1 + 1600 r5_1 +
 180 r6_1 + 0 r7_1 + 0 r9_1 + 1000 r10_1 + 600 r11_1 + 300 r1_2 +
  500 r2_2+ 100 r3_2 + 400 r4_2 + 800 r5_2 + 90 r6_2 + 0 r7_2 +
   0 r9_2 + 500 r10_2 + 300 r11_2;

// restrições
tf <= 26;

arco_i1: t1 >= ti + 0;
arco_12: t2 >= t1 - r1_1 - r1_2 + 6;
arco_42: t2 >= t4 - r4_1 - r4_2 + 9;
arco_23: t3 >= t2 - r2_1 - r2_2 + 7;
arco_53: t3 >= t5 - r5_1 - r5_2 + 4;
arco_i4: t4 >= ti + 0;
arco_74: t4 >= t7 - r7_1 - r7_2 + 6;
arco_45: t5 >= t4 - r4_1 - r4_2 + 9;
arco_75: t5 >= t7 - r7_1 - r7_2 + 6;
arco_105: t5 >= t10 - r10_1 - r10_2 + 8;
arco_i6: t6 >= ti + 0;
arco_610: t10 >= t6 - r6_1 - r6_2 + 5;
arco_67: t7 >= t6 - r6_1 - r6_2 + 5;
arco_119: t9 >= t11 - r11_1 - r11_2 + 7;
arco_79: t9 >= t7 - r7_1 - r7_2 + 6;
arco_1011: t11 >= t10 - r10_1 - r10_2 + 8;
arco_3f: tf >= t3 - r3_1 - r3_2 + 2;
arco_5f: tf >= t5 - r5_1 - r5_2 + 4;
arco_9f: tf >= t9 - r9_1 - r9_2 + 2;

r1_1<= 1;
r2_1<= 3;
r3_1<= 0.5;
r4_1<= 2;
r5_1<= 0.5;
r6_1<= 1;
r7_1<= 0;
r9_1<= 0;
r10_1<= 0.5;
r11_1<= 1;

1 y1 <= r1_1;
3 y2 <= r2_1;
0.5 y3 <= r3_1;
2 y4 <= r4_1;
0.5 y5 <= r5_1;
1 y6 <= r6_1;
0 y7 <= r7_1;
0 y9 <= r9_1;
0.5 y10 <= r10_1;
1 y11 <= r11_1;

r1_2<= 1 y1;
r2_2<= 1 y2;
r3_2<= 0.5 y3;
r4_2<= 1 y4;
r5_2<= 0.5 y5;
r6_2<= 1 y6;
r7_2<= 0 y7;
r9_2<= 0 y9;
r10_2<= 0.5 y10;
r11_2<= 1 y11;

bin y1, y2, y3, y4, y5, y6, y7, y9, y10, y11;